SYSTEM = one anion defect pair

NCORE = 6
LREAL = A
PREC = Normal
EDIFF = 1e-5
ALGO = Normal
ISMEAR =  0
SIGMA = 0.05
IBRION = 0
NSW = 20000       
NWRITE = 0        
ISTART = 0
LCHARG = FALSE    
LWAVE = FALSE     
TEBEG = 600       
TEEND = 600       
SMASS =  0
NBLOCK = 5     # every x-th step written to XDATCAR
POTIM = 1.0
MAXMIX = 40
ISYM = 0
NELMIN = 4
