Li  P  S Br                             
1.0
       14.5458526611         0.0000000000         0.0000000000
        0.0000000000        14.5458526611         0.0000000000
        0.0000000000         0.0000000000        20.5709419250
   Li    P    S   Br
   95   16   79   17
Direct
     0.113171739         0.136828261         0.375000000
     0.613171788         0.636828212         0.375000000
     0.613171788         0.636828212         0.875000023
     0.113171739         0.136828261         0.875000023
     0.886828212         0.863171788         0.375000000
     0.386828179         0.363171821         0.375000000
     0.386828179         0.363171821         0.875000023
     0.886828212         0.863171788         0.875000023
     0.636828212         0.613171788         0.125000000
     0.136828187         0.113171813         0.125000000
     0.136828187         0.113171813         0.624999977
     0.636828212         0.613171788         0.624999977
     0.363171755         0.386828245         0.125000000
     0.863171788         0.886828212         0.125000000
     0.863171788         0.886828212         0.624999977
     0.363171755         0.386828245         0.624999977
     0.636828212         0.386828245         0.125000000
     0.136828187         0.886828212         0.125000000
     0.136828187         0.886828212         0.624999977
     0.636828212         0.386828245         0.624999977
     0.113171755         0.863171788         0.375000000
     0.613171788         0.363171821         0.375000000
     0.613171788         0.363171821         0.875000023
     0.113171755         0.863171788         0.875000023
     0.363171755         0.613171788         0.125000000
     0.863171788         0.113171813         0.125000000
     0.863171788         0.113171813         0.624999977
     0.363171755         0.613171788         0.624999977
     0.886828212         0.136828261         0.375000000
     0.386828179         0.636828212         0.375000000
     0.386828179         0.636828212         0.875000023
     0.886828212         0.136828261         0.875000023
     0.250000000         0.500000000         0.011828258
     0.750000000        -0.000000000         0.011828258
     0.750000000        -0.000000000         0.511828265
     0.250000000         0.500000000         0.511828265
    -0.000000000         0.750000000         0.488171735
     0.500000000         0.250000000         0.488171735
     0.500000000         0.250000000         0.988171735
     0.000000000         0.750000000         0.988171735
    -0.000000000         0.250000000         0.488171735
     0.500000000         0.750000000         0.488171735
     0.500000000         0.750000000         0.988171735
     0.000000000         0.250000000         0.988171735
     0.750000000         0.500000000         0.011828258
     0.250000000        -0.000000000         0.011828258
     0.250000000        -0.000000000         0.511828265
     0.750000000         0.500000000         0.511828265
     0.886828212         0.636828212         0.375000000
     0.386828179         0.136828187         0.375000000
     0.386828179         0.136828187         0.875000023
     0.886828212         0.636828212         0.875000023
     0.863171788         0.613171788         0.125000000
     0.363171821         0.113171813         0.125000000
     0.363171821         0.113171813         0.624999977
     0.863171788         0.613171788         0.624999977
     0.113171739         0.363171755         0.375000000
     0.613171788         0.863171788         0.375000000
     0.613171788         0.863171788         0.875000023
     0.113171739         0.363171755         0.875000023
     0.136828245         0.386828245         0.125000000
     0.636828212         0.886828212         0.125000000
     0.636828212         0.886828212         0.624999977
     0.136828245         0.386828245         0.624999977
     0.000000000         0.250000000         0.261828242
     0.500000000         0.750000000         0.261828242
     0.500000000         0.750000000         0.761828265
     0.000000000         0.250000000         0.761828265
     0.750000000         0.500000000         0.238171735
     0.250000000         0.000000000         0.238171735
     0.250000000         0.000000000         0.738171735
     0.750000000         0.500000000         0.738171735
     0.250000000         0.500000000         0.238171735
     0.750000000         0.000000000         0.238171735
     0.750000000         0.000000000         0.738171735
     0.250000000         0.500000000         0.738171735
    -0.000000000         0.750000000         0.261828242
     0.500000000         0.250000000         0.261828242
     0.500000000         0.250000000         0.761828265
     0.000000000         0.750000000         0.761828265
     0.863171788         0.386828245         0.125000000
     0.363171821         0.886828212         0.125000000
     0.363171821         0.886828212         0.624999977
     0.863171788         0.386828245         0.624999977
     0.136828261         0.613171788         0.125000000
     0.636828212         0.113171813         0.125000000
     0.636828212         0.113171813         0.624999977
     0.886828212         0.363171755         0.375000000
     0.386828179         0.863171788         0.375000000
     0.386828179         0.863171788         0.875000023
     0.886828212         0.363171755         0.875000023
     0.113171755         0.636828212         0.375000000
     0.613171788         0.136828187         0.375000000
     0.613171788         0.136828187         0.875000023
     0.113171755         0.636828212         0.875000023
     0.000000000         0.000000000         0.000000000
     0.500000000         0.500000000         0.000000000
     0.500000000         0.500000000         0.500000000
     0.000000000         0.000000000         0.500000000
     0.250000000         0.250000000         0.250000000
     0.750000000         0.750000000         0.250000000
     0.750000000         0.750000000         0.750000000
     0.250000000         0.250000000         0.750000000
     0.750000000         0.250000000         0.250000000
     0.250000000         0.750000000         0.250000000
     0.250000000         0.750000000         0.750000000
     0.750000000         0.250000000         0.750000000
     0.000000000         0.500000000         0.000000000
     0.500000000         0.000000000         0.000000000
     0.500000000         0.000000000         0.500000000
     0.000000000         0.500000000         0.500000000
     0.134511770         0.250000000         0.192255879
     0.634511795         0.750000000         0.192255879
     0.634511795         0.750000000         0.692255833
     0.134511770         0.250000000         0.692255833
     0.865488205         0.750000000         0.192255879
     0.365488304         0.250000000         0.192255879
     0.365488304         0.250000000         0.692255833
     0.865488205         0.750000000         0.692255833
     0.750000000         0.634511795         0.307744121
     0.250000000         0.134511713         0.307744121
     0.250000000         0.134511713         0.807744167
     0.750000000         0.634511795         0.807744167
     0.250000000         0.365488238         0.307744121
     0.750000000         0.865488205         0.307744121
     0.750000000         0.865488205         0.807744167
     0.250000000         0.365488238         0.807744167
     0.865488205         0.250000000         0.192255879
     0.365488304         0.750000000         0.192255879
     0.365488304         0.750000000         0.692255833
     0.865488205         0.250000000         0.692255833
     0.250000000         0.634511795         0.307744121
     0.750000000         0.134511713         0.307744121
     0.750000000         0.134511713         0.807744167
     0.250000000         0.634511795         0.807744167
     0.134511770         0.750000000         0.192255879
     0.634511795         0.250000000         0.192255879
     0.634511795         0.250000000         0.692255833
     0.134511770         0.750000000         0.692255833
     0.750000000         0.365488238         0.307744121
     0.250000000         0.865488205         0.307744121
     0.250000000         0.865488205         0.807744167
     0.750000000         0.365488238         0.807744167
     0.000000000         0.384511762         0.057744109
     0.500000000         0.884511795         0.057744109
     0.500000000         0.884511795         0.557744074
     0.000000000         0.384511762         0.557744074
     0.884511795         0.500000000         0.442255879
     0.384511696         0.000000000         0.442255879
     0.384511696        -0.000000000         0.942255879
     0.884511795         0.500000000         0.942255879
     0.115488230         0.500000000         0.442255879
     0.615488205         0.000000000         0.442255879
     0.615488205        -0.000000000         0.942255879
     0.115488230         0.500000000         0.942255879
     0.000000000         0.615488205         0.057744109
     0.500000000         0.115488287         0.057744109
     0.500000000         0.115488287         0.557744074
    -0.000000000         0.615488205         0.557744074
     0.384511762         0.500000000         0.442255879
     0.884511795         0.000000000         0.442255879
     0.884511795        -0.000000000         0.942255879
     0.384511762         0.500000000         0.942255879
     0.615488205         0.500000000         0.442255879
     0.115488287         0.000000000         0.442255879
     0.115488287        -0.000000000         0.942255879
     0.615488205         0.500000000         0.942255879
     0.000000000         0.884511795         0.057744109
     0.500000000         0.384511696         0.057744109
     0.500000000         0.384511696         0.557744074
     0.000000000         0.884511795         0.557744074
    -0.000000000         0.115488214         0.057744109
     0.500000000         0.615488205         0.057744109
     0.500000000         0.615488205         0.557744074
     0.000000000         0.115488214         0.557744074
     0.000000000         0.250000000         0.375000000
     0.500000000         0.750000000         0.375000000
     0.500000000         0.750000000         0.875000023
     0.000000000         0.250000000         0.875000023
    -0.000000000         0.750000000         0.375000000
     0.500000000         0.250000000         0.375000000
     0.500000000         0.250000000         0.875000023
     0.000000000         0.750000000         0.875000023
     0.750000000         0.500000000         0.125000000
     0.250000000         0.000000000         0.125000000
     0.250000000         0.000000000         0.624999977
     0.750000000         0.500000000         0.624999977
     0.250000000         0.500000000         0.125000000
     0.750000000         0.000000000         0.125000000
     0.750000000         0.000000000         0.624999977
     0.250000000         0.500000000         0.624999977
     0.000000000         0.000000000         0.250000000
     0.500000000         0.500000000         0.250000000
     0.500000000         0.500000000         0.750000000
    -0.000000000        -0.000000000         0.750000000
     0.750000000         0.250000000         0.000000000
     0.250000000         0.750000000         0.000000000
     0.250000000         0.750000000         0.500000000
     0.750000000         0.250000000         0.500000000
     0.250000000         0.250000000         0.000000000
     0.750000000         0.750000000         0.000000000
     0.750000000         0.750000000         0.500000000
     0.250000000         0.250000000         0.500000000
    -0.000000000         0.500000000         0.250000000
     0.500000000         0.000000000         0.250000000
     0.500000000        -0.000000000         0.750000000
     0.000000000         0.500000000         0.750000000
