supercell generated structure
1.0
       14.5458002090         0.0000000000         0.0000000000
        0.0000000000        14.5458002090         0.0000000000
        0.0000000000         0.0000000000        20.5708999634
  Li    P   S   Br  
  96   16  80   16  
Direct
     0.113170000         0.136830000         0.375000000
     0.613170000         0.636829984         0.375000000
     0.613170000         0.636829984         0.875000046
     0.113170000         0.136830000         0.875000046
     0.886829968         0.863170049         0.375000000
     0.386830000         0.363169983         0.375000000
     0.386830000         0.363169983         0.875000046
     0.886829968         0.863170049         0.875000046
     0.636829984         0.613170000         0.125000000
     0.136830000         0.113170000         0.125000000
     0.136830000         0.113170000         0.625000000
     0.636829984         0.613170000         0.625000000
     0.363169983         0.386830000         0.125000000
     0.863170049         0.886829968         0.125000000
     0.863170049         0.886829968         0.625000000
     0.363169983         0.386830000         0.625000000
     0.636829984         0.386830000         0.125000000
     0.136830000         0.886829968         0.125000000
     0.136830000         0.886829968         0.625000000
     0.636829984         0.386830000         0.625000000
     0.113170000         0.863170049         0.375000000
     0.613170000         0.363169983         0.375000000
     0.613170000         0.363169983         0.875000046
     0.113170000         0.863170049         0.875000046
     0.363169983         0.613170000         0.125000000
     0.863170049         0.113170000         0.125000000
     0.863170049         0.113170000         0.625000000
     0.363169983         0.613170000         0.625000000
     0.886829968         0.136830000         0.375000000
     0.386830000         0.636829984         0.375000000
     0.386830000         0.636829984         0.875000046
     0.886829968         0.136830000         0.875000046
     0.250000000         0.500000000         0.011830000
     0.750000016        -0.000000000         0.011830000
     0.750000016         0.000000000         0.511829958
     0.250000000         0.500000000         0.511829958
     0.000000000         0.750000016         0.488169995
     0.500000000         0.250000000         0.488169995
     0.500000000         0.250000000         0.988170042
     0.000000000         0.750000016         0.988170042
     0.000000000         0.250000000         0.488169995
     0.500000000         0.750000016         0.488169995
     0.500000000         0.750000016         0.988170042
    -0.000000000         0.250000000         0.988170042
     0.750000016         0.500000000         0.011830000
     0.250000000        -0.000000000         0.011830000
     0.250000000         0.000000000         0.511829958
     0.750000016         0.500000000         0.511829958
     0.886829968         0.636829984         0.375000000
     0.386830000         0.136830000         0.375000000
     0.386830000         0.136830000         0.875000046
     0.886829968         0.636829984         0.875000046
     0.863170049         0.613170000         0.125000000
     0.363169983         0.113170000         0.125000000
     0.363169983         0.113170000         0.625000000
     0.863170049         0.613170000         0.625000000
     0.113170000         0.363169983         0.375000000
     0.613170000         0.863170049         0.375000000
     0.613170000         0.863170049         0.875000046
     0.113170000         0.363169983         0.875000046
     0.136830000         0.386830000         0.125000000
     0.636829984         0.886829968         0.125000000
     0.636829984         0.886829968         0.625000000
     0.136830000         0.386830000         0.625000000
     0.000000000         0.250000000         0.261830005
     0.500000000         0.750000016         0.261830005
     0.500000000         0.750000016         0.761829958
     0.000000000         0.250000000         0.761829958
     0.750000016         0.500000000         0.238169995
     0.250000000         0.000000000         0.238169995
     0.250000000        -0.000000000         0.738170042
     0.750000016         0.500000000         0.738170042
     0.250000000         0.500000000         0.238169995
     0.750000016         0.000000000         0.238169995
     0.750000016        -0.000000000         0.738170042
     0.250000000         0.500000000         0.738170042
    -0.000000000         0.750000016         0.261830005
     0.500000000         0.250000000         0.261830005
     0.500000000         0.250000000         0.761829958
     0.000000000         0.750000016         0.761829958
     0.863170049         0.386830000         0.125000000
     0.363169983         0.886829968         0.125000000
     0.363169983         0.886829968         0.625000000
     0.863170049         0.386830000         0.625000000
     0.136830000         0.613170000         0.125000000
     0.636829984         0.113170000         0.125000000
     0.636829984         0.113170000         0.625000000
     0.136830000         0.613170000         0.625000000
     0.886829968         0.363169983         0.375000000
     0.386830000         0.863170049         0.375000000
     0.386830000         0.863170049         0.875000046
     0.886829968         0.363169983         0.875000046
     0.113170000         0.636829984         0.375000000
     0.613170000         0.136830000         0.375000000
     0.613170000         0.136830000         0.875000046
     0.113170000         0.636829984         0.875000046
     0.000000000         0.000000000         0.000000000
     0.500000000         0.500000000         0.000000000
     0.500000000         0.500000000         0.500000000
     0.000000000         0.000000000         0.500000000
     0.250000000         0.250000000         0.250000000
     0.750000016         0.750000016         0.250000000
     0.750000016         0.750000016         0.750000000
     0.250000000         0.250000000         0.750000000
     0.750000016         0.250000000         0.250000000
     0.250000000         0.750000016         0.250000000
     0.250000000         0.750000016         0.750000000
     0.750000016         0.250000000         0.750000000
    -0.000000000         0.500000000         0.000000000
     0.500000000         0.000000000         0.000000000
     0.500000000         0.000000000         0.500000000
     0.000000000         0.500000000         0.500000000
    -0.000000000         0.500000000         0.750000000
    -0.000000000         0.250000000         0.375000000
     0.500000000         0.750000016         0.375000000
     0.500000000         0.750000016         0.875000046
     0.000000000         0.250000000         0.875000046
    -0.000000000         0.750000016         0.375000000
     0.500000000         0.250000000         0.375000000
     0.500000000         0.250000000         0.875000046
    -0.000000000         0.750000016         0.875000046
     0.750000016         0.500000000         0.125000000
     0.250000000         0.000000000         0.125000000
     0.250000000         0.000000000         0.625000000
     0.750000016         0.500000000         0.625000000
     0.250000000         0.500000000         0.125000000
     0.750000016         0.000000000         0.125000000
     0.750000016         0.000000000         0.625000000
     0.134509993         0.250000000         0.192259992
     0.634509952         0.750000016         0.192259992
     0.634509952         0.750000016         0.692260027
     0.134509993         0.250000000         0.692260027
     0.865490015         0.750000016         0.192259992
     0.365489982         0.250000000         0.192259992
     0.365489982         0.250000000         0.692260027
     0.865490015         0.750000016         0.692260027
     0.750000016         0.634509952         0.307739996
     0.250000000         0.134509993         0.307739996
     0.250000000         0.134509993         0.807739973
     0.750000016         0.634509952         0.807739973
     0.250000000         0.365489982         0.307739996
     0.750000016         0.865490015         0.307739996
     0.750000016         0.865490015         0.807739973
     0.250000000         0.365489982         0.807739973
     0.865490015         0.250000000         0.192259992
     0.365489982         0.750000016         0.192259992
     0.365489982         0.750000016         0.692260027
     0.865490015         0.250000000         0.692260027
     0.250000000         0.634509952         0.307739996
     0.750000016         0.134509993         0.307739996
     0.750000016         0.134509993         0.807739973
     0.250000000         0.634509952         0.807739973
     0.134509993         0.750000016         0.192259992
     0.634509952         0.250000000         0.192259992
     0.634509952         0.250000000         0.692260027
     0.134509993         0.750000016         0.692260027
     0.750000016         0.365489982         0.307739996
     0.250000000         0.865490015         0.307739996
     0.250000000         0.865490015         0.807739973
     0.750000016         0.365489982         0.807739973
    -0.000000000         0.384510001         0.057739996
     0.500000000         0.884510001         0.057739996
     0.500000000         0.884510001         0.557739973
     0.000000000         0.384510001         0.557739973
     0.884510001         0.500000000         0.442259980
     0.384510001         0.000000000         0.442259980
     0.384510001         0.000000000         0.942260027
     0.884510001         0.500000000         0.942260027
     0.115489999         0.500000000         0.442259980
     0.615490031         0.000000000         0.442259980
     0.615490031         0.000000000         0.942260027
     0.115489999         0.500000000         0.942260027
    -0.000000000         0.615490031         0.057739996
     0.500000000         0.115489999         0.057739996
     0.500000000         0.115489999         0.557739973
    -0.000000000         0.615490031         0.557739973
     0.384510001         0.500000000         0.442259980
     0.884510001         0.000000000         0.442259980
     0.884510001         0.000000000         0.942260027
     0.384510001         0.500000000         0.942260027
     0.615490031         0.500000000         0.442259980
     0.115489999         0.000000000         0.442259980
     0.115489999         0.000000000         0.942260027
     0.615490031         0.500000000         0.942260027
    -0.000000000         0.884510001         0.057739996
     0.500000000         0.384510001         0.057739996
     0.500000000         0.384510001         0.557739973
    -0.000000000         0.884510001         0.557739973
     0.000000000         0.115489999         0.057739996
     0.500000000         0.615490031         0.057739996
     0.500000000         0.615490031         0.557739973
     0.000000000         0.115489999         0.557739973
     0.000000000         0.000000000         0.250000000
     0.500000000         0.500000000         0.250000000
     0.500000000         0.500000000         0.750000000
     0.000000000         0.000000000         0.750000000
     0.750000016         0.250000000         0.000000000
     0.250000000         0.750000016         0.000000000
     0.250000000         0.750000016         0.500000000
     0.750000016         0.250000000         0.500000000
     0.250000000         0.250000000         0.000000000
     0.750000016         0.750000016         0.000000000
     0.750000016         0.750000016         0.500000000
     0.250000000         0.250000000         0.500000000
     0.000000000         0.500000000         0.250000000
     0.500000000         0.000000000         0.250000000
     0.500000000         0.000000000         0.750000000
     0.250000000         0.500000000         0.625000000
